
Gurobi 10.0.1 (linux64) logging started Sun Nov 26 15:50:30 2023

Set parameter LogFile to value "ArtificialInstance/ExperimentV2/S4T5K2/AdRo/gurobiDoRo16.txt"
Gurobi Optimizer version 10.0.1 build v10.0.1rc0 (linux64)

CPU model: AMD EPYC 7H12 64-Core Processor, instruction set [SSE2|AVX|AVX2]
Thread count: 128 physical cores, 128 logical processors, using up to 32 threads

Academic license 656792 - for non-commercial use only - registered to b.___@student.vu.nl
Optimize a model with 14124 rows, 13216 columns and 51433 nonzeros
Model fingerprint: 0x10a33e35
Variable types: 1 continuous, 13215 integer (13215 binary)
Coefficient statistics:
  Matrix range     [1e+00, 4e+01]
  Objective range  [1e+00, 2e+01]
  Bounds range     [1e+00, 1e+00]
  RHS range        [1e+00, 1e+00]
Presolve removed 5446 rows and 5010 columns
Presolve time: 0.18s
Presolved: 8678 rows, 8206 columns, 32206 nonzeros
Variable types: 1 continuous, 8205 integer (8205 binary)
Found heuristic solution: objective 94.8024247

Root relaxation: objective 9.439816e+01, 2648 iterations, 0.11 seconds (0.08 work units)

    Nodes    |    Current Node    |     Objective Bounds      |     Work
 Expl Unexpl |  Obj  Depth IntInf | Incumbent    BestBd   Gap | It/Node Time

     0     0   94.39816    0   20   94.80242   94.39816  0.43%     -    0s
H    0     0                      94.3981556   94.39816  0.00%     -    0s
     0     0   94.39816    0   20   94.39816   94.39816  0.00%     -    0s

Explored 1 nodes (4827 simplex iterations) in 0.43 seconds (0.31 work units)
Thread count was 32 (of 128 available processors)

Solution count 2: 94.3982 94.8024 

Optimal solution found (tolerance 1.00e-04)
Best objective 9.439815555125e+01, best bound 9.439815555125e+01, gap 0.0000%
